c This file is generated by v2cnfMtr
c Generated on Mon Feb 22 16:55:38 2016
p cnf 1044 2715
1 86 0
-1 -86 0
2 87 0
-2 -87 0
4 88 0
-4 -88 0
6 89 0
-6 -89 0
8 90 0
-8 -90 0
10 91 0
-10 -91 0
12 92 0
-12 -92 0
14 93 0
-14 -93 0
16 94 0
-16 -94 0
18 95 0
-18 -95 0
20 96 0
-20 -96 0
22 97 0
-22 -97 0
24 98 0
-24 -98 0
26 99 0
-26 -99 0
28 100 0
-28 -100 0
30 101 0
-30 -101 0
32 102 0
-32 -102 0
34 103 0
-34 -103 0
-86 -2 -104 0
86 104 0
2 104 0
3 87 105 0
-3 -105 0
-87 -105 0
5 87 106 0
-5 -106 0
-87 -106 0
-88 -6 -107 0
88 107 0
6 107 0
-90 -10 -108 0
90 108 0
10 108 0
-92 -14 -109 0
92 109 0
14 109 0
-94 -18 -110 0
94 110 0
18 110 0
-96 -22 -111 0
96 111 0
22 111 0
-98 -26 -112 0
98 112 0
26 112 0
-100 -30 -113 0
100 113 0
30 113 0
-102 -34 -114 0
102 114 0
34 114 0
7 89 115 0
-7 -115 0
-89 -115 0
9 89 116 0
-9 -116 0
-89 -116 0
11 91 117 0
-11 -117 0
-91 -117 0
13 91 118 0
-13 -118 0
-91 -118 0
15 93 119 0
-15 -119 0
-93 -119 0
17 93 120 0
-17 -120 0
-93 -120 0
19 95 121 0
-19 -121 0
-95 -121 0
21 95 122 0
-21 -122 0
-95 -122 0
23 97 123 0
-23 -123 0
-97 -123 0
25 97 124 0
-25 -124 0
-97 -124 0
27 99 125 0
-27 -125 0
-99 -125 0
29 99 126 0
-29 -126 0
-99 -126 0
31 101 127 0
-31 -127 0
-101 -127 0
33 101 128 0
-33 -128 0
-101 -128 0
35 103 129 0
-35 -129 0
-103 -129 0
36 103 130 0
-36 -130 0
-103 -130 0
-104 -107 -108 -109 -110 -111 -112 -113 -114 131 0
104 -131 0
107 -131 0
108 -131 0
109 -131 0
110 -131 0
111 -131 0
112 -131 0
113 -131 0
114 -131 0
131 132 0
-131 -132 0
131 133 0
-131 -133 0
131 79 0
-131 -79 0
-132 -104 -134 0
132 104 -134 0
132 -104 134 0
-132 104 134 0
-132 -107 -135 0
132 107 -135 0
132 -107 135 0
-132 107 135 0
-132 -108 -136 0
132 108 -136 0
132 -108 136 0
-132 108 136 0
-132 -109 -137 0
132 109 -137 0
132 -109 137 0
-132 109 137 0
-132 -110 -138 0
132 110 -138 0
132 -110 138 0
-132 110 138 0
-132 -111 -139 0
132 111 -139 0
132 -111 139 0
-132 111 139 0
-1 -133 -140 0
1 140 0
133 140 0
-132 -112 -141 0
132 112 -141 0
132 -112 141 0
-132 112 141 0
-132 -113 -143 0
132 113 -143 0
132 -113 143 0
-132 113 143 0
-133 -8 -144 0
133 144 0
8 144 0
-132 -114 -145 0
132 114 -145 0
132 -114 145 0
-132 114 145 0
-133 -12 -146 0
133 146 0
12 146 0
-133 -16 -147 0
133 147 0
16 147 0
-133 -20 -148 0
133 148 0
20 148 0
-133 -24 -149 0
133 149 0
24 149 0
-133 -28 -150 0
133 150 0
28 150 0
-133 -32 -151 0
133 151 0
32 151 0
-134 -105 -152 0
134 152 0
105 152 0
-134 -106 -153 0
134 153 0
106 153 0
-136 -117 -155 0
136 155 0
117 155 0
-137 -119 -156 0
137 156 0
119 156 0
-138 -121 -157 0
138 157 0
121 157 0
-139 -123 -158 0
139 158 0
123 158 0
-141 -125 -159 0
141 159 0
125 159 0
-143 -127 -160 0
143 160 0
127 160 0
-145 -129 -161 0
145 161 0
129 161 0
-135 -116 -162 0
135 162 0
116 162 0
-136 -118 -163 0
136 163 0
118 163 0
-137 -120 -164 0
137 164 0
120 164 0
-138 -122 -165 0
138 165 0
122 165 0
-139 -124 -166 0
139 166 0
124 166 0
-141 -126 -167 0
141 167 0
126 167 0
-143 -128 -168 0
143 168 0
128 168 0
-145 -130 -169 0
145 169 0
130 169 0
-152 -154 -155 -156 -157 -158 -159 -160 -161 170 0
152 -170 0
154 -170 0
155 -170 0
156 -170 0
157 -170 0
158 -170 0
159 -170 0
160 -170 0
161 -170 0
153 171 0
-153 -171 0
162 172 0
-162 -172 0
163 173 0
-163 -173 0
164 174 0
-164 -174 0
165 175 0
-165 -175 0
166 176 0
-166 -176 0
167 177 0
-167 -177 0
168 178 0
-168 -178 0
169 179 0
-169 -179 0
170 180 0
-170 -180 0
170 181 0
-170 -181 0
170 80 0
-170 -80 0
-180 -152 -182 0
180 152 -182 0
180 -152 182 0
-180 152 182 0
-180 -154 -183 0
180 154 -183 0
180 -154 183 0
-180 154 183 0
-180 -155 -184 0
180 155 -184 0
180 -155 184 0
-180 155 184 0
-180 -156 -185 0
180 156 -185 0
180 -156 185 0
-180 156 185 0
-3 -181 -186 0
3 186 0
181 186 0
-180 -157 -187 0
180 157 -187 0
180 -157 187 0
-180 157 187 0
-181 -7 -188 0
181 188 0
7 188 0
-180 -158 -189 0
180 158 -189 0
180 -158 189 0
-180 158 189 0
-181 -11 -190 0
181 190 0
11 190 0
-180 -159 -191 0
180 159 -191 0
180 -159 191 0
-180 159 191 0
-181 -15 -192 0
181 192 0
15 192 0
-180 -160 -193 0
180 160 -193 0
180 -160 193 0
-180 160 193 0
-181 -19 -194 0
181 194 0
19 194 0
-180 -161 -195 0
180 161 -195 0
180 -161 195 0
-180 161 195 0
-181 -23 -196 0
181 196 0
23 196 0
-181 -27 -197 0
181 197 0
27 197 0
-181 -31 -198 0
181 198 0
31 198 0
-181 -35 -199 0
181 199 0
35 199 0
-182 -171 -200 0
182 200 0
171 200 0
-183 -172 -201 0
183 201 0
172 201 0
-184 -173 -202 0
184 202 0
173 202 0
-185 -174 -203 0
185 203 0
174 203 0
-187 -175 -204 0
187 204 0
175 204 0
-189 -176 -205 0
189 205 0
176 205 0
-191 -177 -206 0
191 206 0
177 206 0
-193 -178 -207 0
193 207 0
178 207 0
-195 -179 -208 0
195 208 0
179 208 0
-200 -201 -202 -203 -204 -205 -206 -207 -208 209 0
200 -209 0
201 -209 0
202 -209 0
203 -209 0
204 -209 0
205 -209 0
206 -209 0
207 -209 0
208 -209 0
209 210 0
-209 -210 0
209 81 0
-209 -81 0
-5 -210 -211 0
5 211 0
210 211 0
-210 -9 -212 0
210 212 0
9 212 0
-210 -13 -213 0
210 213 0
13 213 0
-210 -17 -214 0
210 214 0
17 214 0
-210 -21 -215 0
210 215 0
21 215 0
-210 -25 -216 0
210 216 0
25 216 0
-210 -33 -218 0
210 218 0
33 218 0
-210 -36 -219 0
210 219 0
36 219 0
-2 -140 -186 -211 -220 0
2 220 0
140 220 0
186 220 0
211 220 0
-142 -188 -212 -6 -221 0
142 221 0
188 221 0
212 221 0
6 221 0
-144 -190 -213 -10 -222 0
144 222 0
190 222 0
213 222 0
10 222 0
-147 -194 -215 -18 -224 0
147 224 0
194 224 0
215 224 0
18 224 0
-148 -196 -216 -22 -225 0
148 225 0
196 225 0
216 225 0
22 225 0
-149 -197 -217 -26 -226 0
149 226 0
197 226 0
217 226 0
26 226 0
-150 -198 -218 -30 -227 0
150 227 0
198 227 0
218 227 0
30 227 0
-151 -199 -219 -34 -228 0
151 228 0
199 228 0
219 228 0
34 228 0
220 229 0
-220 -229 0
-221 -222 -223 -224 -225 -226 -227 -228 230 0
221 -230 0
222 -230 0
223 -230 0
224 -230 0
225 -230 0
226 -230 0
227 -230 0
228 -230 0
223 231 0
-223 -231 0
225 232 0
-225 -232 0
226 233 0
-226 -233 0
227 234 0
-227 -234 0
229 230 82 0
-229 -82 0
-230 -82 0
-222 -231 -235 0
222 235 0
231 235 0
-222 -223 -232 -224 -236 0
222 236 0
223 236 0
232 236 0
224 236 0
-224 -223 -233 -237 0
224 237 0
223 237 0
233 237 0
-222 -223 -226 -234 -238 0
222 238 0
223 238 0
226 238 0
234 238 0
-221 -222 -235 -224 -83 0
221 83 0
222 83 0
235 83 0
224 83 0
-221 -222 -236 -237 -84 0
221 84 0
222 84 0
236 84 0
237 84 0
-221 -235 -236 -238 -85 0
221 85 0
235 85 0
236 85 0
238 85 0
39 239 0
-39 -239 0
40 240 0
-40 -240 0
133 241 0
-133 -241 0
-133 -239 243 0
133 -243 0
239 -243 0
-241 -239 244 0
241 -244 0
239 -244 0
-37 -39 245 0
37 -245 0
39 -245 0
-38 -39 246 0
38 -246 0
39 -246 0
-243 -240 252 0
243 -252 0
240 -252 0
-244 -40 250 0
244 -250 0
40 -250 0
-245 -240 248 0
245 -248 0
240 -248 0
-246 -40 247 0
246 -247 0
40 -247 0
247 248 -249 0
-247 249 0
-248 249 0
249 250 -251 0
-249 251 0
-250 251 0
252 251 -242 0
-252 242 0
-251 242 0
41 253 0
-41 -253 0
42 254 0
-42 -254 0
4 255 0
-4 -255 0
-4 -253 257 0
4 -257 0
253 -257 0
-255 -253 258 0
255 -258 0
253 -258 0
-37 -41 259 0
37 -259 0
41 -259 0
-38 -41 260 0
38 -260 0
41 -260 0
-257 -254 266 0
257 -266 0
254 -266 0
-258 -42 264 0
258 -264 0
42 -264 0
-259 -254 262 0
259 -262 0
254 -262 0
-260 -42 261 0
260 -261 0
42 -261 0
261 262 -263 0
-261 263 0
-262 263 0
263 264 -265 0
-263 265 0
-264 265 0
266 265 -256 0
-266 256 0
-265 256 0
43 267 0
-43 -267 0
44 268 0
-44 -268 0
2 479 0
-2 -479 0
-2 -267 271 0
2 -271 0
267 -271 0
-479 -267 272 0
479 -272 0
267 -272 0
-37 -43 273 0
37 -273 0
43 -273 0
-38 -43 274 0
38 -274 0
43 -274 0
-271 -268 280 0
271 -280 0
268 -280 0
-272 -44 278 0
272 -278 0
44 -278 0
-273 -268 276 0
273 -276 0
268 -276 0
-274 -44 275 0
274 -275 0
44 -275 0
275 276 -277 0
-275 277 0
-276 277 0
277 278 -279 0
-277 279 0
-278 279 0
280 279 -480 0
-280 480 0
-279 480 0
45 281 0
-45 -281 0
46 282 0
-46 -282 0
1 493 0
-1 -493 0
-1 -281 285 0
1 -285 0
281 -285 0
-493 -281 286 0
493 -286 0
281 -286 0
-37 -45 287 0
37 -287 0
45 -287 0
-38 -45 288 0
38 -288 0
45 -288 0
-285 -282 294 0
285 -294 0
282 -294 0
-286 -46 292 0
286 -292 0
46 -292 0
-287 -282 290 0
287 -290 0
282 -290 0
-288 -46 289 0
288 -289 0
46 -289 0
289 290 -291 0
-289 291 0
-290 291 0
291 292 -293 0
-291 293 0
-292 293 0
294 293 -494 0
-294 494 0
-293 494 0
47 295 0
-47 -295 0
48 296 0
-48 -296 0
298 297 0
-298 -297 0
-298 -295 299 0
298 -299 0
295 -299 0
-297 -295 300 0
297 -300 0
295 -300 0
-37 -47 301 0
37 -301 0
47 -301 0
-38 -47 302 0
38 -302 0
47 -302 0
-299 -296 308 0
299 -308 0
296 -308 0
-300 -48 306 0
300 -306 0
48 -306 0
-301 -296 304 0
301 -304 0
296 -304 0
-302 -48 303 0
302 -303 0
48 -303 0
303 304 -305 0
-303 305 0
-304 305 0
305 306 -307 0
-305 307 0
-306 307 0
308 307 -142 0
-308 142 0
-307 142 0
-242 -256 -480 -494 -298 0
242 298 0
256 298 0
480 298 0
494 298 0
49 309 0
-49 -309 0
50 310 0
-50 -310 0
146 311 0
-146 -311 0
-146 -309 313 0
146 -313 0
309 -313 0
-311 -309 314 0
311 -314 0
309 -314 0
-37 -49 315 0
37 -315 0
49 -315 0
-38 -49 316 0
38 -316 0
49 -316 0
-313 -310 322 0
313 -322 0
310 -322 0
-314 -50 320 0
314 -320 0
50 -320 0
-315 -310 318 0
315 -318 0
310 -318 0
-316 -50 317 0
316 -317 0
50 -317 0
317 318 -319 0
-317 319 0
-318 319 0
319 320 -321 0
-319 321 0
-320 321 0
322 321 -312 0
-322 312 0
-321 312 0
51 323 0
-51 -323 0
52 324 0
-52 -324 0
192 325 0
-192 -325 0
-192 -323 327 0
192 -327 0
323 -327 0
-325 -323 328 0
325 -328 0
323 -328 0
-37 -51 329 0
37 -329 0
51 -329 0
-38 -51 330 0
38 -330 0
51 -330 0
-327 -324 336 0
327 -336 0
324 -336 0
-328 -52 334 0
328 -334 0
52 -334 0
-329 -324 332 0
329 -332 0
324 -332 0
-330 -52 331 0
330 -331 0
52 -331 0
331 332 -333 0
-331 333 0
-332 333 0
333 334 -335 0
-333 335 0
-334 335 0
336 335 -326 0
-336 326 0
-335 326 0
53 337 0
-53 -337 0
54 338 0
-54 -338 0
214 339 0
-214 -339 0
-214 -337 341 0
214 -341 0
337 -341 0
-339 -337 342 0
339 -342 0
337 -342 0
-37 -53 343 0
37 -343 0
53 -343 0
-38 -53 344 0
38 -344 0
53 -344 0
-341 -338 350 0
341 -350 0
338 -350 0
-342 -54 348 0
342 -348 0
54 -348 0
-343 -338 346 0
343 -346 0
338 -346 0
-344 -54 345 0
344 -345 0
54 -345 0
345 346 -347 0
-345 347 0
-346 347 0
347 348 -349 0
-347 349 0
-348 349 0
350 349 -340 0
-350 340 0
-349 340 0
55 351 0
-55 -351 0
56 352 0
-56 -352 0
14 353 0
-14 -353 0
-14 -351 355 0
14 -355 0
351 -355 0
-353 -351 356 0
353 -356 0
351 -356 0
-37 -55 357 0
37 -357 0
55 -357 0
-38 -55 358 0
38 -358 0
55 -358 0
-355 -352 364 0
355 -364 0
352 -364 0
-356 -56 362 0
356 -362 0
56 -362 0
-357 -352 360 0
357 -360 0
352 -360 0
-358 -56 359 0
358 -359 0
56 -359 0
359 360 -361 0
-359 361 0
-360 361 0
361 362 -363 0
-361 363 0
-362 363 0
364 363 -354 0
-364 354 0
-363 354 0
57 365 0
-57 -365 0
58 366 0
-58 -366 0
368 367 0
-368 -367 0
-368 -365 369 0
368 -369 0
365 -369 0
-367 -365 370 0
367 -370 0
365 -370 0
-37 -57 371 0
37 -371 0
57 -371 0
-38 -57 372 0
38 -372 0
57 -372 0
-369 -366 378 0
369 -378 0
366 -378 0
-370 -58 376 0
370 -376 0
58 -376 0
-371 -366 374 0
371 -374 0
366 -374 0
-372 -58 373 0
372 -373 0
58 -373 0
373 374 -375 0
-373 375 0
-374 375 0
375 376 -377 0
-375 377 0
-376 377 0
378 377 -223 0
-378 223 0
-377 223 0
-312 -326 -340 -354 -368 0
312 368 0
326 368 0
340 368 0
354 368 0
59 379 0
-59 -379 0
60 380 0
-60 -380 0
210 381 0
-210 -381 0
-210 -379 383 0
210 -383 0
379 -383 0
-381 -379 384 0
381 -384 0
379 -384 0
-37 -59 385 0
37 -385 0
59 -385 0
-38 -59 386 0
38 -386 0
59 -386 0
-383 -380 392 0
383 -392 0
380 -392 0
-384 -60 390 0
384 -390 0
60 -390 0
-385 -380 388 0
385 -388 0
380 -388 0
-386 -60 387 0
386 -387 0
60 -387 0
387 388 -389 0
-387 389 0
-388 389 0
389 390 -391 0
-389 391 0
-390 391 0
392 391 -382 0
-392 382 0
-391 382 0
61 393 0
-61 -393 0
62 394 0
-62 -394 0
29 395 0
-29 -395 0
-29 -393 397 0
29 -397 0
393 -397 0
-395 -393 398 0
395 -398 0
393 -398 0
-37 -61 399 0
37 -399 0
61 -399 0
-38 -61 400 0
38 -400 0
61 -400 0
-397 -394 406 0
397 -406 0
394 -406 0
-398 -62 404 0
398 -404 0
62 -404 0
-399 -394 402 0
399 -402 0
394 -402 0
-400 -62 401 0
400 -401 0
62 -401 0
401 402 -403 0
-401 403 0
-402 403 0
403 404 -405 0
-403 405 0
-404 405 0
406 405 -396 0
-406 396 0
-405 396 0
63 407 0
-63 -407 0
64 408 0
-64 -408 0
2 479 0
-2 -479 0
-2 -407 411 0
2 -411 0
407 -411 0
-479 -407 412 0
479 -412 0
407 -412 0
-37 -63 413 0
37 -413 0
63 -413 0
-38 -63 414 0
38 -414 0
63 -414 0
-411 -408 420 0
411 -420 0
408 -420 0
-412 -64 418 0
412 -418 0
64 -418 0
-413 -408 416 0
413 -416 0
408 -416 0
-414 -64 415 0
414 -415 0
64 -415 0
415 416 -417 0
-415 417 0
-416 417 0
417 418 -419 0
-417 419 0
-418 419 0
420 419 -480 0
-420 480 0
-419 480 0
65 421 0
-65 -421 0
66 422 0
-66 -422 0
1 493 0
-1 -493 0
-1 -421 425 0
1 -425 0
421 -425 0
-493 -421 426 0
493 -426 0
421 -426 0
-37 -65 427 0
37 -427 0
65 -427 0
-38 -65 428 0
38 -428 0
65 -428 0
-425 -422 434 0
425 -434 0
422 -434 0
-426 -66 432 0
426 -432 0
66 -432 0
-427 -422 430 0
427 -430 0
422 -430 0
-428 -66 429 0
428 -429 0
66 -429 0
429 430 -431 0
-429 431 0
-430 431 0
431 432 -433 0
-431 433 0
-432 433 0
434 433 -494 0
-434 494 0
-433 494 0
67 435 0
-67 -435 0
68 436 0
-68 -436 0
438 437 0
-438 -437 0
-438 -435 439 0
438 -439 0
435 -439 0
-437 -435 440 0
437 -440 0
435 -440 0
-37 -67 441 0
37 -441 0
67 -441 0
-38 -67 442 0
38 -442 0
67 -442 0
-439 -436 448 0
439 -448 0
436 -448 0
-440 -68 446 0
440 -446 0
68 -446 0
-441 -436 444 0
441 -444 0
436 -444 0
-442 -68 443 0
442 -443 0
68 -443 0
443 444 -445 0
-443 445 0
-444 445 0
445 446 -447 0
-445 447 0
-446 447 0
448 447 -217 0
-448 217 0
-447 217 0
-382 -396 -480 -494 -438 0
382 438 0
396 438 0
480 438 0
494 438 0
69 449 0
-69 -449 0
70 450 0
-70 -450 0
135 451 0
-135 -451 0
-135 -449 453 0
135 -453 0
449 -453 0
-451 -449 454 0
451 -454 0
449 -454 0
-37 -69 455 0
37 -455 0
69 -455 0
-38 -69 456 0
38 -456 0
69 -456 0
-453 -450 462 0
453 -462 0
450 -462 0
-454 -70 460 0
454 -460 0
70 -460 0
-455 -450 458 0
455 -458 0
450 -458 0
-456 -70 457 0
456 -457 0
70 -457 0
457 458 -459 0
-457 459 0
-458 459 0
459 460 -461 0
-459 461 0
-460 461 0
462 461 -452 0
-462 452 0
-461 452 0
71 463 0
-71 -463 0
72 464 0
-72 -464 0
115 465 0
-115 -465 0
-115 -463 467 0
115 -467 0
463 -467 0
-465 -463 468 0
465 -468 0
463 -468 0
-37 -71 469 0
37 -469 0
71 -469 0
-38 -71 470 0
38 -470 0
71 -470 0
-467 -464 476 0
467 -476 0
464 -476 0
-468 -72 474 0
468 -474 0
72 -474 0
-469 -464 472 0
469 -472 0
464 -472 0
-470 -72 471 0
470 -471 0
72 -471 0
471 472 -473 0
-471 473 0
-472 473 0
473 474 -475 0
-473 475 0
-474 475 0
476 475 -466 0
-476 466 0
-475 466 0
73 477 0
-73 -477 0
74 478 0
-74 -478 0
2 479 0
-2 -479 0
-2 -477 481 0
2 -481 0
477 -481 0
-479 -477 482 0
479 -482 0
477 -482 0
-37 -73 483 0
37 -483 0
73 -483 0
-38 -73 484 0
38 -484 0
73 -484 0
-481 -478 490 0
481 -490 0
478 -490 0
-482 -74 488 0
482 -488 0
74 -488 0
-483 -478 486 0
483 -486 0
478 -486 0
-484 -74 485 0
484 -485 0
74 -485 0
485 486 -487 0
-485 487 0
-486 487 0
487 488 -489 0
-487 489 0
-488 489 0
490 489 -480 0
-490 480 0
-489 480 0
75 491 0
-75 -491 0
76 492 0
-76 -492 0
1 493 0
-1 -493 0
-1 -491 495 0
1 -495 0
491 -495 0
-493 -491 496 0
493 -496 0
491 -496 0
-37 -75 497 0
37 -497 0
75 -497 0
-38 -75 498 0
38 -498 0
75 -498 0
-495 -492 504 0
495 -504 0
492 -504 0
-496 -76 502 0
496 -502 0
76 -502 0
-497 -492 500 0
497 -500 0
492 -500 0
-498 -76 499 0
498 -499 0
76 -499 0
499 500 -501 0
-499 501 0
-500 501 0
501 502 -503 0
-501 503 0
-502 503 0
504 503 -494 0
-504 494 0
-503 494 0
77 505 0
-77 -505 0
78 506 0
-78 -506 0
508 507 0
-508 -507 0
-508 -505 509 0
508 -509 0
505 -509 0
-507 -505 510 0
507 -510 0
505 -510 0
-37 -77 511 0
37 -511 0
77 -511 0
-38 -77 512 0
38 -512 0
77 -512 0
-509 -506 518 0
509 -518 0
506 -518 0
-510 -78 516 0
510 -516 0
78 -516 0
-511 -506 514 0
511 -514 0
506 -514 0
-512 -78 513 0
512 -513 0
78 -513 0
513 514 -515 0
-513 515 0
-514 515 0
515 516 -517 0
-515 517 0
-516 517 0
518 517 -154 0
-518 154 0
-517 154 0
-452 -466 -480 -494 -508 0
452 508 0
466 508 0
480 508 0
494 508 0
c The second circuit:
519 604 0
-519 -604 0
520 605 0
-520 -605 0
522 606 0
-522 -606 0
524 607 0
-524 -607 0
526 608 0
-526 -608 0
528 609 0
-528 -609 0
530 610 0
-530 -610 0
532 611 0
-532 -611 0
534 612 0
-534 -612 0
536 613 0
-536 -613 0
538 614 0
-538 -614 0
540 615 0
-540 -615 0
542 616 0
-542 -616 0
544 617 0
-544 -617 0
546 618 0
-546 -618 0
548 619 0
-548 -619 0
550 620 0
-550 -620 0
552 621 0
-552 -621 0
-604 -520 -622 0
604 622 0
520 622 0
521 605 623 0
-521 -623 0
-605 -623 0
523 605 624 0
-523 -624 0
-605 -624 0
-606 -524 -625 0
606 625 0
524 625 0
-608 -528 -626 0
608 626 0
528 626 0
-610 -532 -627 0
610 627 0
532 627 0
-612 -536 -628 0
612 628 0
536 628 0
-614 -540 -629 0
614 629 0
540 629 0
-616 -544 -630 0
616 630 0
544 630 0
-618 -548 -631 0
618 631 0
548 631 0
-620 -552 -632 0
620 632 0
552 632 0
525 607 633 0
-525 -633 0
-607 -633 0
527 607 634 0
-527 -634 0
-607 -634 0
529 609 635 0
-529 -635 0
-609 -635 0
531 609 636 0
-531 -636 0
-609 -636 0
533 611 637 0
-533 -637 0
-611 -637 0
535 611 638 0
-535 -638 0
-611 -638 0
537 613 639 0
-537 -639 0
-613 -639 0
539 613 640 0
-539 -640 0
-613 -640 0
541 615 641 0
-541 -641 0
-615 -641 0
543 615 642 0
-543 -642 0
-615 -642 0
545 617 643 0
-545 -643 0
-617 -643 0
547 617 644 0
-547 -644 0
-617 -644 0
549 619 645 0
-549 -645 0
-619 -645 0
551 619 646 0
-551 -646 0
-619 -646 0
553 621 647 0
-553 -647 0
-621 -647 0
554 621 648 0
-554 -648 0
-621 -648 0
-622 -625 -626 -627 -628 -629 -630 -631 -632 649 0
622 -649 0
625 -649 0
626 -649 0
627 -649 0
628 -649 0
629 -649 0
630 -649 0
631 -649 0
632 -649 0
649 650 0
-649 -650 0
649 651 0
-649 -651 0
649 597 0
-649 -597 0
-650 -622 -652 0
650 622 -652 0
650 -622 652 0
-650 622 652 0
-650 -625 -653 0
650 625 -653 0
650 -625 653 0
-650 625 653 0
-650 -626 -654 0
650 626 -654 0
650 -626 654 0
-650 626 654 0
-650 -627 -655 0
650 627 -655 0
650 -627 655 0
-650 627 655 0
-650 -628 -656 0
650 628 -656 0
650 -628 656 0
-650 628 656 0
-650 -629 -657 0
650 629 -657 0
650 -629 657 0
-650 629 657 0
-519 -651 -658 0
519 658 0
651 658 0
-650 -630 -659 0
650 630 -659 0
650 -630 659 0
-650 630 659 0
-650 -631 -661 0
650 631 -661 0
650 -631 661 0
-650 631 661 0
-651 -526 -662 0
651 662 0
526 662 0
-650 -632 -663 0
650 632 -663 0
650 -632 663 0
-650 632 663 0
-651 -530 -664 0
651 664 0
530 664 0
-651 -534 -665 0
651 665 0
534 665 0
-651 -538 -666 0
651 666 0
538 666 0
-651 -542 -667 0
651 667 0
542 667 0
-651 -546 -668 0
651 668 0
546 668 0
-651 -550 -669 0
651 669 0
550 669 0
-652 -623 -670 0
652 670 0
623 670 0
-652 -624 -671 0
652 671 0
624 671 0
-654 -635 -673 0
654 673 0
635 673 0
-655 -637 -674 0
655 674 0
637 674 0
-656 -639 -675 0
656 675 0
639 675 0
-657 -641 -676 0
657 676 0
641 676 0
-659 -643 -677 0
659 677 0
643 677 0
-661 -645 -678 0
661 678 0
645 678 0
-663 -647 -679 0
663 679 0
647 679 0
-653 -634 -680 0
653 680 0
634 680 0
-654 -636 -681 0
654 681 0
636 681 0
-655 -638 -682 0
655 682 0
638 682 0
-656 -640 -683 0
656 683 0
640 683 0
-657 -642 -684 0
657 684 0
642 684 0
-659 -644 -685 0
659 685 0
644 685 0
-661 -646 -686 0
661 686 0
646 686 0
-663 -648 -687 0
663 687 0
648 687 0
-670 -672 -673 -674 -675 -676 -677 -678 -679 688 0
670 -688 0
672 -688 0
673 -688 0
674 -688 0
675 -688 0
676 -688 0
677 -688 0
678 -688 0
679 -688 0
671 689 0
-671 -689 0
680 690 0
-680 -690 0
681 691 0
-681 -691 0
682 692 0
-682 -692 0
683 693 0
-683 -693 0
684 694 0
-684 -694 0
685 695 0
-685 -695 0
686 696 0
-686 -696 0
687 697 0
-687 -697 0
688 698 0
-688 -698 0
688 699 0
-688 -699 0
688 598 0
-688 -598 0
-698 -670 -700 0
698 670 -700 0
698 -670 700 0
-698 670 700 0
-698 -672 -701 0
698 672 -701 0
698 -672 701 0
-698 672 701 0
-698 -673 -702 0
698 673 -702 0
698 -673 702 0
-698 673 702 0
-698 -674 -703 0
698 674 -703 0
698 -674 703 0
-698 674 703 0
-521 -699 -704 0
521 704 0
699 704 0
-698 -675 -705 0
698 675 -705 0
698 -675 705 0
-698 675 705 0
-699 -525 -706 0
699 706 0
525 706 0
-698 -676 -707 0
698 676 -707 0
698 -676 707 0
-698 676 707 0
-699 -529 -708 0
699 708 0
529 708 0
-698 -677 -709 0
698 677 -709 0
698 -677 709 0
-698 677 709 0
-699 -533 -710 0
699 710 0
533 710 0
-698 -678 -711 0
698 678 -711 0
698 -678 711 0
-698 678 711 0
-699 -537 -712 0
699 712 0
537 712 0
-698 -679 -713 0
698 679 -713 0
698 -679 713 0
-698 679 713 0
-699 -541 -714 0
699 714 0
541 714 0
-699 -545 -715 0
699 715 0
545 715 0
-699 -549 -716 0
699 716 0
549 716 0
-699 -553 -717 0
699 717 0
553 717 0
-700 -689 -718 0
700 718 0
689 718 0
-701 -690 -719 0
701 719 0
690 719 0
-702 -691 -720 0
702 720 0
691 720 0
-703 -692 -721 0
703 721 0
692 721 0
-705 -693 -722 0
705 722 0
693 722 0
-707 -694 -723 0
707 723 0
694 723 0
-709 -695 -724 0
709 724 0
695 724 0
-711 -696 -725 0
711 725 0
696 725 0
-713 -697 -726 0
713 726 0
697 726 0
-718 -719 -720 -721 -722 -723 -724 -725 -726 727 0
718 -727 0
719 -727 0
720 -727 0
721 -727 0
722 -727 0
723 -727 0
724 -727 0
725 -727 0
726 -727 0
727 728 0
-727 -728 0
727 599 0
-727 -599 0
-523 -728 -729 0
523 729 0
728 729 0
-728 -527 -730 0
728 730 0
527 730 0
-728 -531 -731 0
728 731 0
531 731 0
-728 -535 -732 0
728 732 0
535 732 0
-728 -539 -733 0
728 733 0
539 733 0
-728 -543 -734 0
728 734 0
543 734 0
-728 -551 -736 0
728 736 0
551 736 0
-728 -554 -737 0
728 737 0
554 737 0
-520 -658 -704 -729 -738 0
520 738 0
658 738 0
704 738 0
729 738 0
-660 -706 -730 -524 -739 0
660 739 0
706 739 0
730 739 0
524 739 0
-662 -708 -731 -528 -740 0
662 740 0
708 740 0
731 740 0
528 740 0
-665 -712 -733 -536 -742 0
665 742 0
712 742 0
733 742 0
536 742 0
-666 -714 -734 -540 -743 0
666 743 0
714 743 0
734 743 0
540 743 0
-667 -715 -735 -544 -744 0
667 744 0
715 744 0
735 744 0
544 744 0
-668 -716 -736 -548 -745 0
668 745 0
716 745 0
736 745 0
548 745 0
-669 -717 -737 -552 -746 0
669 746 0
717 746 0
737 746 0
552 746 0
738 747 0
-738 -747 0
-739 -740 -741 -742 -743 -744 -745 -746 748 0
739 -748 0
740 -748 0
741 -748 0
742 -748 0
743 -748 0
744 -748 0
745 -748 0
746 -748 0
741 749 0
-741 -749 0
743 750 0
-743 -750 0
744 751 0
-744 -751 0
745 752 0
-745 -752 0
747 748 600 0
-747 -600 0
-748 -600 0
-740 -749 -753 0
740 753 0
749 753 0
-740 -741 -750 -742 -754 0
740 754 0
741 754 0
750 754 0
742 754 0
-742 -741 -751 -755 0
742 755 0
741 755 0
751 755 0
-740 -741 -744 -752 -756 0
740 756 0
741 756 0
744 756 0
752 756 0
-739 -740 -753 -742 -601 0
739 601 0
740 601 0
753 601 0
742 601 0
-739 -740 -754 -755 -602 0
739 602 0
740 602 0
754 602 0
755 602 0
-739 -753 -754 -756 -603 0
739 603 0
753 603 0
754 603 0
756 603 0
557 757 0
-557 -757 0
558 758 0
-558 -758 0
651 759 0
-651 -759 0
-651 -757 761 0
651 -761 0
757 -761 0
-759 -757 762 0
759 -762 0
757 -762 0
-555 -557 763 0
555 -763 0
557 -763 0
-556 -557 764 0
556 -764 0
557 -764 0
-761 -758 770 0
761 -770 0
758 -770 0
-762 -558 768 0
762 -768 0
558 -768 0
-763 -758 766 0
763 -766 0
758 -766 0
-764 -558 765 0
764 -765 0
558 -765 0
765 766 -767 0
-765 767 0
-766 767 0
767 768 -769 0
-767 769 0
-768 769 0
770 769 -760 0
-770 760 0
-769 760 0
559 771 0
-559 -771 0
560 772 0
-560 -772 0
522 773 0
-522 -773 0
-522 -771 775 0
522 -775 0
771 -775 0
-773 -771 776 0
773 -776 0
771 -776 0
-555 -559 777 0
555 -777 0
559 -777 0
-556 -559 778 0
556 -778 0
559 -778 0
-775 -772 784 0
775 -784 0
772 -784 0
-776 -560 782 0
776 -782 0
560 -782 0
-777 -772 780 0
777 -780 0
772 -780 0
-778 -560 779 0
778 -779 0
560 -779 0
779 780 -781 0
-779 781 0
-780 781 0
781 782 -783 0
-781 783 0
-782 783 0
784 783 -774 0
-784 774 0
-783 774 0
561 785 0
-561 -785 0
562 786 0
-562 -786 0
520 997 0
-520 -997 0
-520 -785 789 0
520 -789 0
785 -789 0
-997 -785 790 0
997 -790 0
785 -790 0
-555 -561 791 0
555 -791 0
561 -791 0
-556 -561 792 0
556 -792 0
561 -792 0
-789 -786 798 0
789 -798 0
786 -798 0
-790 -562 796 0
790 -796 0
562 -796 0
-791 -786 794 0
791 -794 0
786 -794 0
-792 -562 793 0
792 -793 0
562 -793 0
793 794 -795 0
-793 795 0
-794 795 0
795 796 -797 0
-795 797 0
-796 797 0
798 797 -998 0
-798 998 0
-797 998 0
563 799 0
-563 -799 0
564 800 0
-564 -800 0
519 1011 0
-519 -1011 0
-519 -799 803 0
519 -803 0
799 -803 0
-1011 -799 804 0
1011 -804 0
799 -804 0
-555 -563 805 0
555 -805 0
563 -805 0
-556 -563 806 0
556 -806 0
563 -806 0
-803 -800 812 0
803 -812 0
800 -812 0
-804 -564 810 0
804 -810 0
564 -810 0
-805 -800 808 0
805 -808 0
800 -808 0
-806 -564 807 0
806 -807 0
564 -807 0
807 808 -809 0
-807 809 0
-808 809 0
809 810 -811 0
-809 811 0
-810 811 0
812 811 -1012 0
-812 1012 0
-811 1012 0
565 813 0
-565 -813 0
566 814 0
-566 -814 0
816 815 0
-816 -815 0
-816 -813 817 0
816 -817 0
813 -817 0
-815 -813 818 0
815 -818 0
813 -818 0
-555 -565 819 0
555 -819 0
565 -819 0
-556 -565 820 0
556 -820 0
565 -820 0
-817 -814 826 0
817 -826 0
814 -826 0
-818 -566 824 0
818 -824 0
566 -824 0
-819 -814 822 0
819 -822 0
814 -822 0
-820 -566 821 0
820 -821 0
566 -821 0
821 822 -823 0
-821 823 0
-822 823 0
823 824 -825 0
-823 825 0
-824 825 0
826 825 -660 0
-826 660 0
-825 660 0
-760 -774 -998 -1012 -816 0
760 816 0
774 816 0
998 816 0
1012 816 0
567 827 0
-567 -827 0
568 828 0
-568 -828 0
664 829 0
-664 -829 0
-664 -827 831 0
664 -831 0
827 -831 0
-829 -827 832 0
829 -832 0
827 -832 0
-555 -567 833 0
555 -833 0
567 -833 0
-556 -567 834 0
556 -834 0
567 -834 0
-831 -828 840 0
831 -840 0
828 -840 0
-832 -568 838 0
832 -838 0
568 -838 0
-833 -828 836 0
833 -836 0
828 -836 0
-834 -568 835 0
834 -835 0
568 -835 0
835 836 -837 0
-835 837 0
-836 837 0
837 838 -839 0
-837 839 0
-838 839 0
840 839 -830 0
-840 830 0
-839 830 0
569 841 0
-569 -841 0
570 842 0
-570 -842 0
710 843 0
-710 -843 0
-710 -841 845 0
710 -845 0
841 -845 0
-843 -841 846 0
843 -846 0
841 -846 0
-555 -569 847 0
555 -847 0
569 -847 0
-556 -569 848 0
556 -848 0
569 -848 0
-845 -842 854 0
845 -854 0
842 -854 0
-846 -570 852 0
846 -852 0
570 -852 0
-847 -842 850 0
847 -850 0
842 -850 0
-848 -570 849 0
848 -849 0
570 -849 0
849 850 -851 0
-849 851 0
-850 851 0
851 852 -853 0
-851 853 0
-852 853 0
854 853 -844 0
-854 844 0
-853 844 0
571 855 0
-571 -855 0
572 856 0
-572 -856 0
732 857 0
-732 -857 0
-732 -855 859 0
732 -859 0
855 -859 0
-857 -855 860 0
857 -860 0
855 -860 0
-555 -571 861 0
555 -861 0
571 -861 0
-556 -571 862 0
556 -862 0
571 -862 0
-859 -856 868 0
859 -868 0
856 -868 0
-860 -572 866 0
860 -866 0
572 -866 0
-861 -856 864 0
861 -864 0
856 -864 0
-862 -572 863 0
862 -863 0
572 -863 0
863 864 -865 0
-863 865 0
-864 865 0
865 866 -867 0
-865 867 0
-866 867 0
868 867 -858 0
-868 858 0
-867 858 0
573 869 0
-573 -869 0
574 870 0
-574 -870 0
532 871 0
-532 -871 0
-532 -869 873 0
532 -873 0
869 -873 0
-871 -869 874 0
871 -874 0
869 -874 0
-555 -573 875 0
555 -875 0
573 -875 0
-556 -573 876 0
556 -876 0
573 -876 0
-873 -870 882 0
873 -882 0
870 -882 0
-874 -574 880 0
874 -880 0
574 -880 0
-875 -870 878 0
875 -878 0
870 -878 0
-876 -574 877 0
876 -877 0
574 -877 0
877 878 -879 0
-877 879 0
-878 879 0
879 880 -881 0
-879 881 0
-880 881 0
882 881 -872 0
-882 872 0
-881 872 0
575 883 0
-575 -883 0
576 884 0
-576 -884 0
886 885 0
-886 -885 0
-886 -883 887 0
886 -887 0
883 -887 0
-885 -883 888 0
885 -888 0
883 -888 0
-555 -575 889 0
555 -889 0
575 -889 0
-556 -575 890 0
556 -890 0
575 -890 0
-887 -884 896 0
887 -896 0
884 -896 0
-888 -576 894 0
888 -894 0
576 -894 0
-889 -884 892 0
889 -892 0
884 -892 0
-890 -576 891 0
890 -891 0
576 -891 0
891 892 -893 0
-891 893 0
-892 893 0
893 894 -895 0
-893 895 0
-894 895 0
896 895 -741 0
-896 741 0
-895 741 0
-830 -844 -858 -872 -886 0
830 886 0
844 886 0
858 886 0
872 886 0
577 897 0
-577 -897 0
578 898 0
-578 -898 0
728 899 0
-728 -899 0
-728 -897 901 0
728 -901 0
897 -901 0
-899 -897 902 0
899 -902 0
897 -902 0
-555 -577 903 0
555 -903 0
577 -903 0
-556 -577 904 0
556 -904 0
577 -904 0
-901 -898 910 0
901 -910 0
898 -910 0
-902 -578 908 0
902 -908 0
578 -908 0
-903 -898 906 0
903 -906 0
898 -906 0
-904 -578 905 0
904 -905 0
578 -905 0
905 906 -907 0
-905 907 0
-906 907 0
907 908 -909 0
-907 909 0
-908 909 0
910 909 -900 0
-910 900 0
-909 900 0
579 911 0
-579 -911 0
580 912 0
-580 -912 0
547 913 0
-547 -913 0
-547 -911 915 0
547 -915 0
911 -915 0
-913 -911 916 0
913 -916 0
911 -916 0
-555 -579 917 0
555 -917 0
579 -917 0
-556 -579 918 0
556 -918 0
579 -918 0
-915 -912 924 0
915 -924 0
912 -924 0
-916 -580 922 0
916 -922 0
580 -922 0
-917 -912 920 0
917 -920 0
912 -920 0
-918 -580 919 0
918 -919 0
580 -919 0
919 920 -921 0
-919 921 0
-920 921 0
921 922 -923 0
-921 923 0
-922 923 0
924 923 -914 0
-924 914 0
-923 914 0
581 925 0
-581 -925 0
582 926 0
-582 -926 0
520 997 0
-520 -997 0
-520 -925 929 0
520 -929 0
925 -929 0
-997 -925 930 0
997 -930 0
925 -930 0
-555 -581 931 0
555 -931 0
581 -931 0
-556 -581 932 0
556 -932 0
581 -932 0
-929 -926 938 0
929 -938 0
926 -938 0
-930 -582 936 0
930 -936 0
582 -936 0
-931 -926 934 0
931 -934 0
926 -934 0
-932 -582 933 0
932 -933 0
582 -933 0
933 934 -935 0
-933 935 0
-934 935 0
935 936 -937 0
-935 937 0
-936 937 0
938 937 -998 0
-938 998 0
-937 998 0
583 939 0
-583 -939 0
584 940 0
-584 -940 0
519 1011 0
-519 -1011 0
-519 -939 943 0
519 -943 0
939 -943 0
-1011 -939 944 0
1011 -944 0
939 -944 0
-555 -583 945 0
555 -945 0
583 -945 0
-556 -583 946 0
556 -946 0
583 -946 0
-943 -940 952 0
943 -952 0
940 -952 0
-944 -584 950 0
944 -950 0
584 -950 0
-945 -940 948 0
945 -948 0
940 -948 0
-946 -584 947 0
946 -947 0
584 -947 0
947 948 -949 0
-947 949 0
-948 949 0
949 950 -951 0
-949 951 0
-950 951 0
952 951 -1012 0
-952 1012 0
-951 1012 0
585 953 0
-585 -953 0
586 954 0
-586 -954 0
956 955 0
-956 -955 0
-956 -953 957 0
956 -957 0
953 -957 0
-955 -953 958 0
955 -958 0
953 -958 0
-555 -585 959 0
555 -959 0
585 -959 0
-556 -585 960 0
556 -960 0
585 -960 0
-957 -954 966 0
957 -966 0
954 -966 0
-958 -586 964 0
958 -964 0
586 -964 0
-959 -954 962 0
959 -962 0
954 -962 0
-960 -586 961 0
960 -961 0
586 -961 0
961 962 -963 0
-961 963 0
-962 963 0
963 964 -965 0
-963 965 0
-964 965 0
966 965 -735 0
-966 735 0
-965 735 0
-900 -914 -998 -1012 -956 0
900 956 0
914 956 0
998 956 0
1012 956 0
587 967 0
-587 -967 0
588 968 0
-588 -968 0
653 969 0
-653 -969 0
-653 -967 971 0
653 -971 0
967 -971 0
-969 -967 972 0
969 -972 0
967 -972 0
-555 -587 973 0
555 -973 0
587 -973 0
-556 -587 974 0
556 -974 0
587 -974 0
-971 -968 980 0
971 -980 0
968 -980 0
-972 -588 978 0
972 -978 0
588 -978 0
-973 -968 976 0
973 -976 0
968 -976 0
-974 -588 975 0
974 -975 0
588 -975 0
975 976 -977 0
-975 977 0
-976 977 0
977 978 -979 0
-977 979 0
-978 979 0
980 979 -970 0
-980 970 0
-979 970 0
589 981 0
-589 -981 0
590 982 0
-590 -982 0
633 983 0
-633 -983 0
-633 -981 985 0
633 -985 0
981 -985 0
-983 -981 986 0
983 -986 0
981 -986 0
-555 -589 987 0
555 -987 0
589 -987 0
-556 -589 988 0
556 -988 0
589 -988 0
-985 -982 994 0
985 -994 0
982 -994 0
-986 -590 992 0
986 -992 0
590 -992 0
-987 -982 990 0
987 -990 0
982 -990 0
-988 -590 989 0
988 -989 0
590 -989 0
989 990 -991 0
-989 991 0
-990 991 0
991 992 -993 0
-991 993 0
-992 993 0
994 993 -984 0
-994 984 0
-993 984 0
591 995 0
-591 -995 0
592 996 0
-592 -996 0
520 997 0
-520 -997 0
-520 -995 999 0
520 -999 0
995 -999 0
-997 -995 1000 0
997 -1000 0
995 -1000 0
-555 -591 1001 0
555 -1001 0
591 -1001 0
-556 -591 1002 0
556 -1002 0
591 -1002 0
-999 -996 1008 0
999 -1008 0
996 -1008 0
-1000 -592 1006 0
1000 -1006 0
592 -1006 0
-1001 -996 1004 0
1001 -1004 0
996 -1004 0
-1002 -592 1003 0
1002 -1003 0
592 -1003 0
1003 1004 -1005 0
-1003 1005 0
-1004 1005 0
1005 1006 -1007 0
-1005 1007 0
-1006 1007 0
1008 1007 -998 0
-1008 998 0
-1007 998 0
593 1009 0
-593 -1009 0
594 1010 0
-594 -1010 0
519 1011 0
-519 -1011 0
-519 -1009 1013 0
519 -1013 0
1009 -1013 0
-1011 -1009 1014 0
1011 -1014 0
1009 -1014 0
-555 -593 1015 0
555 -1015 0
593 -1015 0
-556 -593 1016 0
556 -1016 0
593 -1016 0
-1013 -1010 1022 0
1013 -1022 0
1010 -1022 0
-1014 -594 1020 0
1014 -1020 0
594 -1020 0
-1015 -1010 1018 0
1015 -1018 0
1010 -1018 0
-1016 -594 1017 0
1016 -1017 0
594 -1017 0
1017 1018 -1019 0
-1017 1019 0
-1018 1019 0
1019 1020 -1021 0
-1019 1021 0
-1020 1021 0
1022 1021 -1012 0
-1022 1012 0
-1021 1012 0
595 1023 0
-595 -1023 0
596 1024 0
-596 -1024 0
1026 1025 0
-1026 -1025 0
-1026 -1023 1027 0
1026 -1027 0
1023 -1027 0
-1025 -1023 1028 0
1025 -1028 0
1023 -1028 0
-555 -595 1029 0
555 -1029 0
595 -1029 0
-556 -595 1030 0
556 -1030 0
595 -1030 0
-1027 -1024 1036 0
1027 -1036 0
1024 -1036 0
-1028 -596 1034 0
1028 -1034 0
596 -1034 0
-1029 -1024 1032 0
1029 -1032 0
1024 -1032 0
-1030 -596 1031 0
1030 -1031 0
596 -1031 0
1031 1032 -1033 0
-1031 1033 0
-1032 1033 0
1033 1034 -1035 0
-1033 1035 0
-1034 1035 0
1036 1035 -672 0
-1036 672 0
-1035 672 0
-970 -984 -998 -1012 -1026 0
970 1026 0
984 1026 0
998 1026 0
1012 1026 0
37 0
-38 0
c Force PIs of 2 ckts to be the same:
1 -519 0
-1 519 0
2 -520 0
-2 520 0
3 -521 0
-3 521 0
4 -522 0
-4 522 0
5 -523 0
-5 523 0
6 -524 0
-6 524 0
7 -525 0
-7 525 0
8 -526 0
-8 526 0
9 -527 0
-9 527 0
10 -528 0
-10 528 0
11 -529 0
-11 529 0
12 -530 0
-12 530 0
13 -531 0
-13 531 0
14 -532 0
-14 532 0
15 -533 0
-15 533 0
16 -534 0
-16 534 0
17 -535 0
-17 535 0
18 -536 0
-18 536 0
19 -537 0
-19 537 0
20 -538 0
-20 538 0
21 -539 0
-21 539 0
22 -540 0
-22 540 0
23 -541 0
-23 541 0
24 -542 0
-24 542 0
25 -543 0
-25 543 0
26 -544 0
-26 544 0
27 -545 0
-27 545 0
28 -546 0
-28 546 0
29 -547 0
-29 547 0
30 -548 0
-30 548 0
31 -549 0
-31 549 0
32 -550 0
-32 550 0
33 -551 0
-33 551 0
34 -552 0
-34 552 0
35 -553 0
-35 553 0
36 -554 0
-36 554 0
37 -555 0
-37 555 0
38 -556 0
-38 556 0
c XOR outputs of 2 ckts:
-79 -597 -1037 0
79 597 -1037 0
79 -597 1037 0
-79 597 1037 0
-80 -598 -1038 0
80 598 -1038 0
80 -598 1038 0
-80 598 1038 0
-81 -599 -1039 0
81 599 -1039 0
81 -599 1039 0
-81 599 1039 0
-82 -600 -1040 0
82 600 -1040 0
82 -600 1040 0
-82 600 1040 0
-83 -601 -1041 0
83 601 -1041 0
83 -601 1041 0
-83 601 1041 0
-84 -602 -1042 0
84 602 -1042 0
84 -602 1042 0
-84 602 1042 0
-85 -603 -1043 0
85 603 -1043 0
85 -603 1043 0
-85 603 1043 0
c The last OR gate of the miter:
1037 1038 1039 1040 1041 1042 1043 -1044 0
-1037 1044 0
-1038 1044 0
-1039 1044 0
-1040 1044 0
-1041 1044 0
-1042 1044 0
-1043 1044 0
1044 0
